2500
38 96 74 60 16 16 6 87 61 71 3 97 84 22 19 19 31 53 44 30 62 14 30 37 46 79 20 52 60 5 61 18 7 95 97 81 31 10 69 45 13 50 4 91 26 67 32 53 55 19 97 78 94 90 60 93 9 20 5 33 39 28 83 36 29 55 15 81 8 99 78 20 1 82 71 73 78 8 36 12 87 63 34 7 32 33 73 64 89 48 12 72 77 57 78 50 53 43 3 11 
40 10 39 30 23 5 23 17 8 33 3 37 47 1 50 31 31 1 2 27 20 3 49 12 5 31 20 50 24 43 35 23 1 48 29 20 1 12 13 35 31 42 9 20 10 38 22 11 29 2 43 23 20 47 37 17 29 27 49 43 38 27 30 49 31 14 15 9 1 22 20 15 1 10 36 40 31 47 33 46 43 23 5 19 34 34 30 14 29 20 49 43 37 12 13 3 36 6 22 11 
